p tw 480 1984
1 33
2 34
3 35
4 36
5 37
6 38
7 39
8 40
9 41
10 42
11 43
12 44
13 45
14 46
15 47
16 48
17 49
18 50
19 51
20 52
21 53
22 54
23 55
24 56
25 57
26 58
27 59
28 60
29 61
30 62
31 63
32 64
33 83
33 122
33 133
33 158
33 160
34 89
34 92
34 93
34 94
34 95
35 80
35 112
35 115
35 116
35 117
36 82
36 124
36 138
36 141
36 142
37 70
37 85
37 86
37 87
37 88
38 86
38 102
38 132
38 133
38 134
39 96
39 100
39 101
39 102
39 103
40 92
40 97
40 112
40 113
40 114
41 77
41 115
41 126
41 127
41 128
42 80
42 81
42 82
42 83
42 84
43 98
43 113
43 118
43 119
43 120
44 75
44 76
44 77
44 78
44 79
45 106
45 132
45 135
45 136
45 137
46 66
46 104
46 109
46 110
46 111
47 71
47 85
47 94
47 129
47 131
48 68
48 119
48 127
48 156
48 157
49 65
49 66
49 67
49 68
49 69
50 93
50 100
50 121
50 122
50 123
51 126
51 141
51 146
51 152
51 155
52 76
52 96
52 97
52 98
52 99
53 139
53 149
53 152
53 153
53 154
54 78
54 90
54 107
54 148
54 151
55 143
55 145
55 148
55 149
55 150
56 67
56 73
56 87
56 143
56 144
57 104
57 105
57 106
57 107
57 108
58 72
58 135
58 138
58 139
58 140
59 70
59 71
59 72
59 73
59 74
60 65
60 75
60 89
60 90
60 91
61 101
61 109
61 116
61 129
61 130
62 110
62 118
62 145
62 146
62 147
63 136
63 153
63 156
63 158
63 159
64 81
64 105
64 121
64 124
64 125
65 66
65 67
65 68
65 69
65 75
65 89
65 90
65 91
66 67
66 68
66 69
66 104
66 109
66 110
66 111
67 68
67 69
67 73
67 87
67 143
67 144
68 69
68 119
68 127
68 156
68 157
69 161
69 162
69 163
69 164
69 165
70 71
70 72
70 73
70 74
70 85
70 86
70 87
70 88
71 72
71 73
71 74
71 85
71 94
71 129
71 131
72 73
72 74
72 135
72 138
72 139
72 140
73 74
73 87
73 143
73 144
74 166
74 167
74 168
74 169
74 170
75 76
75 77
75 78
75 79
75 89
75 90
75 91
76 77
76 78
76 79
76 96
76 97
76 98
76 99
77 78
77 79
77 115
77 126
77 127
77 128
78 79
78 90
78 107
78 148
78 151
79 171
79 172
79 173
79 174
79 175
80 81
80 82
80 83
80 84
80 112
80 115
80 116
80 117
81 82
81 83
81 84
81 105
81 121
81 124
81 125
82 83
82 84
82 124
82 138
82 141
82 142
83 84
83 122
83 133
83 158
83 160
84 176
84 177
84 178
84 179
84 180
85 86
85 87
85 88
85 94
85 129
85 131
86 87
86 88
86 102
86 132
86 133
86 134
87 88
87 143
87 144
88 166
88 181
88 182
88 183
88 184
89 90
89 91
89 92
89 93
89 94
89 95
90 91
90 107
90 148
90 151
91 161
91 171
91 185
91 186
91 187
92 93
92 94
92 95
92 97
92 112
92 113
92 114
93 94
93 95
93 100
93 121
93 122
93 123
94 95
94 129
94 131
95 185
95 188
95 189
95 190
95 191
96 97
96 98
96 99
96 100
96 101
96 102
96 103
97 98
97 99
97 112
97 113
97 114
98 99
98 113
98 118
98 119
98 120
99 172
99 192
99 193
99 194
99 195
100 101
100 102
100 103
100 121
100 122
100 123
101 102
101 103
101 109
101 116
101 129
101 130
102 103
102 132
102 133
102 134
103 192
103 196
103 197
103 198
103 199
104 105
104 106
104 107
104 108
104 109
104 110
104 111
105 106
105 107
105 108
105 121
105 124
105 125
106 107
106 108
106 132
106 135
106 136
106 137
107 108
107 148
107 151
108 200
108 201
108 202
108 203
108 204
109 110
109 111
109 116
109 129
109 130
110 111
110 118
110 145
110 146
110 147
111 162
111 200
111 205
111 206
111 207
112 113
112 114
112 115
112 116
112 117
113 114
113 118
113 119
113 120
114 188
114 193
114 208
114 209
114 210
115 116
115 117
115 126
115 127
115 128
116 117
116 129
116 130
117 176
117 208
117 211
117 212
117 213
118 119
118 120
118 145
118 146
118 147
119 120
119 127
119 156
119 157
120 194
120 209
120 214
120 215
120 216
121 122
121 123
121 124
121 125
122 123
122 133
122 158
122 160
123 189
123 196
123 217
123 218
123 219
124 125
124 138
124 141
124 142
125 177
125 201
125 217
125 220
125 221
126 127
126 128
126 141
126 146
126 152
126 155
127 128
127 156
127 157
128 173
128 211
128 222
128 223
128 224
129 130
129 131
130 197
130 205
130 212
130 225
130 226
131 167
131 181
131 190
131 225
131 227
132 133
132 134
132 135
132 136
132 137
133 134
133 158
133 160
134 182
134 198
134 228
134 229
134 230
135 136
135 137
135 138
135 139
135 140
136 137
136 153
136 156
136 158
136 159
137 202
137 228
137 231
137 232
137 233
138 139
138 140
138 141
138 142
139 140
139 149
139 152
139 153
139 154
140 168
140 231
140 234
140 235
140 236
141 142
141 146
141 152
141 155
142 178
142 220
142 234
142 237
142 238
143 144
143 145
143 148
143 149
143 150
144 163
144 169
144 183
144 239
144 240
145 146
145 147
145 148
145 149
145 150
146 147
146 152
146 155
147 206
147 214
147 241
147 242
147 243
148 149
148 150
148 151
149 150
149 152
149 153
149 154
150 239
150 241
150 244
150 245
150 246
151 174
151 186
151 203
151 244
151 247
152 153
152 154
152 155
153 154
153 156
153 158
153 159
154 235
154 245
154 248
154 249
154 250
155 222
155 237
155 242
155 248
155 251
156 157
156 158
156 159
157 164
157 215
157 223
157 252
157 253
158 159
158 160
159 232
159 249
159 252
159 254
159 255
160 179
160 218
160 229
160 254
160 256
161 162
161 163
161 164
161 165
161 171
161 185
161 186
161 187
162 163
162 164
162 165
162 200
162 205
162 206
162 207
163 164
163 165
163 169
163 183
163 239
163 240
164 165
164 215
164 223
164 252
164 253
165 257
165 258
165 259
165 260
165 261
166 167
166 168
166 169
166 170
166 181
166 182
166 183
166 184
167 168
167 169
167 170
167 181
167 190
167 225
167 227
168 169
168 170
168 231
168 234
168 235
168 236
169 170
169 183
169 239
169 240
170 262
170 263
170 264
170 265
170 266
171 172
171 173
171 174
171 175
171 185
171 186
171 187
172 173
172 174
172 175
172 192
172 193
172 194
172 195
173 174
173 175
173 211
173 222
173 223
173 224
174 175
174 186
174 203
174 244
174 247
175 267
175 268
175 269
175 270
175 271
176 177
176 178
176 179
176 180
176 208
176 211
176 212
176 213
177 178
177 179
177 180
177 201
177 217
177 220
177 221
178 179
178 180
178 220
178 234
178 237
178 238
179 180
179 218
179 229
179 254
179 256
180 272
180 273
180 274
180 275
180 276
181 182
181 183
181 184
181 190
181 225
181 227
182 183
182 184
182 198
182 228
182 229
182 230
183 184
183 239
183 240
184 262
184 277
184 278
184 279
184 280
185 186
185 187
185 188
185 189
185 190
185 191
186 187
186 203
186 244
186 247
187 257
187 267
187 281
187 282
187 283
188 189
188 190
188 191
188 193
188 208
188 209
188 210
189 190
189 191
189 196
189 217
189 218
189 219
190 191
190 225
190 227
191 281
191 284
191 285
191 286
191 287
192 193
192 194
192 195
192 196
192 197
192 198
192 199
193 194
193 195
193 208
193 209
193 210
194 195
194 209
194 214
194 215
194 216
195 268
195 288
195 289
195 290
195 291
196 197
196 198
196 199
196 217
196 218
196 219
197 198
197 199
197 205
197 212
197 225
197 226
198 199
198 228
198 229
198 230
199 288
199 292
199 293
199 294
199 295
200 201
200 202
200 203
200 204
200 205
200 206
200 207
201 202
201 203
201 204
201 217
201 220
201 221
202 203
202 204
202 228
202 231
202 232
202 233
203 204
203 244
203 247
204 296
204 297
204 298
204 299
204 300
205 206
205 207
205 212
205 225
205 226
206 207
206 214
206 241
206 242
206 243
207 258
207 296
207 301
207 302
207 303
208 209
208 210
208 211
208 212
208 213
209 210
209 214
209 215
209 216
210 284
210 289
210 304
210 305
210 306
211 212
211 213
211 222
211 223
211 224
212 213
212 225
212 226
213 272
213 304
213 307
213 308
213 309
214 215
214 216
214 241
214 242
214 243
215 216
215 223
215 252
215 253
216 290
216 305
216 310
216 311
216 312
217 218
217 219
217 220
217 221
218 219
218 229
218 254
218 256
219 285
219 292
219 313
219 314
219 315
220 221
220 234
220 237
220 238
221 273
221 297
221 313
221 316
221 317
222 223
222 224
222 237
222 242
222 248
222 251
223 224
223 252
223 253
224 269
224 307
224 318
224 319
224 320
225 226
225 227
226 293
226 301
226 308
226 321
226 322
227 263
227 277
227 286
227 321
227 323
228 229
228 230
228 231
228 232
228 233
229 230
229 254
229 256
230 278
230 294
230 324
230 325
230 326
231 232
231 233
231 234
231 235
231 236
232 233
232 249
232 252
232 254
232 255
233 298
233 324
233 327
233 328
233 329
234 235
234 236
234 237
234 238
235 236
235 245
235 248
235 249
235 250
236 264
236 327
236 330
236 331
236 332
237 238
237 242
237 248
237 251
238 274
238 316
238 330
238 333
238 334
239 240
239 241
239 244
239 245
239 246
240 259
240 265
240 279
240 335
240 336
241 242
241 243
241 244
241 245
241 246
242 243
242 248
242 251
243 302
243 310
243 337
243 338
243 339
244 245
244 246
244 247
245 246
245 248
245 249
245 250
246 335
246 337
246 340
246 341
246 342
247 270
247 282
247 299
247 340
247 343
248 249
248 250
248 251
249 250
249 252
249 254
249 255
250 331
250 341
250 344
250 345
250 346
251 318
251 333
251 338
251 344
251 347
252 253
252 254
252 255
253 260
253 311
253 319
253 348
253 349
254 255
254 256
255 328
255 345
255 348
255 350
255 351
256 275
256 314
256 325
256 350
256 352
257 258
257 259
257 260
257 261
257 267
257 281
257 282
257 283
258 259
258 260
258 261
258 296
258 301
258 302
258 303
259 260
259 261
259 265
259 279
259 335
259 336
260 261
260 311
260 319
260 348
260 349
261 353
261 354
261 355
261 356
261 357
262 263
262 264
262 265
262 266
262 277
262 278
262 279
262 280
263 264
263 265
263 266
263 277
263 286
263 321
263 323
264 265
264 266
264 327
264 330
264 331
264 332
265 266
265 279
265 335
265 336
266 358
266 359
266 360
266 361
266 362
267 268
267 269
267 270
267 271
267 281
267 282
267 283
268 269
268 270
268 271
268 288
268 289
268 290
268 291
269 270
269 271
269 307
269 318
269 319
269 320
270 271
270 282
270 299
270 340
270 343
271 363
271 364
271 365
271 366
271 367
272 273
272 274
272 275
272 276
272 304
272 307
272 308
272 309
273 274
273 275
273 276
273 297
273 313
273 316
273 317
274 275
274 276
274 316
274 330
274 333
274 334
275 276
275 314
275 325
275 350
275 352
276 368
276 369
276 370
276 371
276 372
277 278
277 279
277 280
277 286
277 321
277 323
278 279
278 280
278 294
278 324
278 325
278 326
279 280
279 335
279 336
280 358
280 373
280 374
280 375
280 376
281 282
281 283
281 284
281 285
281 286
281 287
282 283
282 299
282 340
282 343
283 353
283 363
283 377
283 378
283 379
284 285
284 286
284 287
284 289
284 304
284 305
284 306
285 286
285 287
285 292
285 313
285 314
285 315
286 287
286 321
286 323
287 377
287 380
287 381
287 382
287 383
288 289
288 290
288 291
288 292
288 293
288 294
288 295
289 290
289 291
289 304
289 305
289 306
290 291
290 305
290 310
290 311
290 312
291 364
291 384
291 385
291 386
291 387
292 293
292 294
292 295
292 313
292 314
292 315
293 294
293 295
293 301
293 308
293 321
293 322
294 295
294 324
294 325
294 326
295 384
295 388
295 389
295 390
295 391
296 297
296 298
296 299
296 300
296 301
296 302
296 303
297 298
297 299
297 300
297 313
297 316
297 317
298 299
298 300
298 324
298 327
298 328
298 329
299 300
299 340
299 343
300 392
300 393
300 394
300 395
300 396
301 302
301 303
301 308
301 321
301 322
302 303
302 310
302 337
302 338
302 339
303 354
303 392
303 397
303 398
303 399
304 305
304 306
304 307
304 308
304 309
305 306
305 310
305 311
305 312
306 380
306 385
306 400
306 401
306 402
307 308
307 309
307 318
307 319
307 320
308 309
308 321
308 322
309 368
309 400
309 403
309 404
309 405
310 311
310 312
310 337
310 338
310 339
311 312
311 319
311 348
311 349
312 386
312 401
312 406
312 407
312 408
313 314
313 315
313 316
313 317
314 315
314 325
314 350
314 352
315 381
315 388
315 409
315 410
315 411
316 317
316 330
316 333
316 334
317 369
317 393
317 409
317 412
317 413
318 319
318 320
318 333
318 338
318 344
318 347
319 320
319 348
319 349
320 365
320 403
320 414
320 415
320 416
321 322
321 323
322 389
322 397
322 404
322 417
322 418
323 359
323 373
323 382
323 417
323 419
324 325
324 326
324 327
324 328
324 329
325 326
325 350
325 352
326 374
326 390
326 420
326 421
326 422
327 328
327 329
327 330
327 331
327 332
328 329
328 345
328 348
328 350
328 351
329 394
329 420
329 423
329 424
329 425
330 331
330 332
330 333
330 334
331 332
331 341
331 344
331 345
331 346
332 360
332 423
332 426
332 427
332 428
333 334
333 338
333 344
333 347
334 370
334 412
334 426
334 429
334 430
335 336
335 337
335 340
335 341
335 342
336 355
336 361
336 375
336 431
336 432
337 338
337 339
337 340
337 341
337 342
338 339
338 344
338 347
339 398
339 406
339 433
339 434
339 435
340 341
340 342
340 343
341 342
341 344
341 345
341 346
342 431
342 433
342 436
342 437
342 438
343 366
343 378
343 395
343 436
343 439
344 345
344 346
344 347
345 346
345 348
345 350
345 351
346 427
346 437
346 440
346 441
346 442
347 414
347 429
347 434
347 440
347 443
348 349
348 350
348 351
349 356
349 407
349 415
349 444
349 445
350 351
350 352
351 424
351 441
351 444
351 446
351 447
352 371
352 410
352 421
352 446
352 448
353 354
353 355
353 356
353 357
353 363
353 377
353 378
353 379
354 355
354 356
354 357
354 392
354 397
354 398
354 399
355 356
355 357
355 361
355 375
355 431
355 432
356 357
356 407
356 415
356 444
356 445
357 464
358 359
358 360
358 361
358 362
358 373
358 374
358 375
358 376
359 360
359 361
359 362
359 373
359 382
359 417
359 419
360 361
360 362
360 423
360 426
360 427
360 428
361 362
361 375
361 431
361 432
362 454
363 364
363 365
363 366
363 367
363 377
363 378
363 379
364 365
364 366
364 367
364 384
364 385
364 386
364 387
365 366
365 367
365 403
365 414
365 415
365 416
366 367
366 378
366 395
366 436
366 439
367 469
368 369
368 370
368 371
368 372
368 400
368 403
368 404
368 405
369 370
369 371
369 372
369 393
369 409
369 412
369 413
370 371
370 372
370 412
370 426
370 429
370 430
371 372
371 410
371 421
371 446
371 448
372 471
373 374
373 375
373 376
373 382
373 417
373 419
374 375
374 376
374 390
374 420
374 421
374 422
375 376
375 431
375 432
376 476
377 378
377 379
377 380
377 381
377 382
377 383
378 379
378 395
378 436
378 439
379 453
380 381
380 382
380 383
380 385
380 400
380 401
380 402
381 382
381 383
381 388
381 409
381 410
381 411
382 383
382 417
382 419
383 479
384 385
384 386
384 387
384 388
384 389
384 390
384 391
385 386
385 387
385 400
385 401
385 402
386 387
386 401
386 406
386 407
386 408
387 461
388 389
388 390
388 391
388 409
388 410
388 411
389 390
389 391
389 397
389 404
389 417
389 418
390 391
390 420
390 421
390 422
391 474
392 393
392 394
392 395
392 396
392 397
392 398
392 399
393 394
393 395
393 396
393 409
393 412
393 413
394 395
394 396
394 420
394 423
394 424
394 425
395 396
395 436
395 439
396 456
397 398
397 399
397 404
397 417
397 418
398 399
398 406
398 433
398 434
398 435
399 467
400 401
400 402
400 403
400 404
400 405
401 402
401 406
401 407
401 408
402 473
403 404
403 405
403 414
403 415
403 416
404 405
404 417
404 418
405 478
406 407
406 408
406 433
406 434
406 435
407 408
407 415
407 444
407 445
408 470
409 410
409 411
409 412
409 413
410 411
410 421
410 446
410 448
411 463
412 413
412 426
412 429
412 430
413 449
414 415
414 416
414 429
414 434
414 440
414 443
415 416
415 444
415 445
416 472
417 418
417 419
418 452
419 466
420 421
420 422
420 423
420 424
420 425
421 422
421 446
421 448
422 475
423 424
423 425
423 426
423 427
423 428
424 425
424 441
424 444
424 446
424 447
425 468
426 427
426 428
426 429
426 430
427 428
427 437
427 440
427 441
427 442
428 455
429 430
429 434
429 440
429 443
430 477
431 432
431 433
431 436
431 437
431 438
432 457
433 434
433 435
433 436
433 437
433 438
434 435
434 440
434 443
435 451
436 437
436 438
436 439
437 438
437 440
437 441
437 442
438 458
439 459
440 441
440 442
440 443
441 442
441 444
441 446
441 447
442 460
443 462
444 445
444 446
444 447
445 465
446 447
446 448
447 450
448 480
